(set-option :produce-models true)
(set-logic QF_LRA)
(set-info :notes | Strip-packing problem.|)
(declare-fun x0 () Real)
(declare-fun y0 () Real)
(declare-fun x1 () Real)
(declare-fun y1 () Real)
(declare-fun x2 () Real)
(declare-fun y2 () Real)
(declare-fun x3 () Real)
(declare-fun y3 () Real)
(declare-fun x4 () Real)
(declare-fun y4 () Real)
(declare-fun x5 () Real)
(declare-fun y5 () Real)
(declare-fun x6 () Real)
(declare-fun y6 () Real)
(declare-fun x7 () Real)
(declare-fun y7 () Real)
(declare-fun x8 () Real)
(declare-fun y8 () Real)
(declare-fun x9 () Real)
(declare-fun y9 () Real)
(declare-fun x10 () Real)
(declare-fun y10 () Real)
(declare-fun x11 () Real)
(declare-fun y11 () Real)
(declare-fun x12 () Real)
(declare-fun y12 () Real)
(declare-fun x13 () Real)
(declare-fun y13 () Real)
(declare-fun x14 () Real)
(declare-fun y14 () Real)
(declare-fun z () Real)
(declare-fun c () Real)
(assert (and (= c z) (and (>= x0 0) 
(and (>= y0 0) 
(and (>= x1 0) 
(and (>= y1 0) 
(and (>= x2 0) 
(and (>= y2 0) 
(and (>= x3 0) 
(and (>= y3 0) 
(and (>= x4 0) 
(and (>= y4 0) 
(and (>= x5 0) 
(and (>= y5 0) 
(and (>= x6 0) 
(and (>= y6 0) 
(and (>= x7 0) 
(and (>= y7 0) 
(and (>= x8 0) 
(and (>= y8 0) 
(and (>= x9 0) 
(and (>= y9 0) 
(and (>= x10 0) 
(and (>= y10 0) 
(and (>= x11 0) 
(and (>= y11 0) 
(and (>= x12 0) 
(and (>= y12 0) 
(and (>= x13 0) 
(and (>= y13 0) 
(and (>= x14 0) 
(and (>= y14 0) 
(and (>= z 0) 
(and (>= c 0) 
(and (<= (+ x0 0.1167502852) z) 
(and (<= 0.9024338096 y0) 
(and (<= y0 1.0) 
(and (<= x0 (- 4.7663683168 0.1167502852)) 
(and (>= x0 0) 
(and (<= (+ x1 0.3952551088) z) 
(and (<= 0.8863962274 y1) 
(and (<= y1 1.0) 
(and (<= x1 (- 4.7663683168 0.3952551088)) 
(and (>= x1 0) 
(and (<= (+ x2 0.0344022116) z) 
(and (<= 0.8551933707 y2) 
(and (<= y2 1.0) 
(and (<= x2 (- 4.7663683168 0.0344022116)) 
(and (>= x2 0) 
(and (<= (+ x3 0.0380148362) z) 
(and (<= 0.8234475345 y3) 
(and (<= y3 1.0) 
(and (<= x3 (- 4.7663683168 0.0380148362)) 
(and (>= x3 0) 
(and (<= (+ x4 0.9681535196) z) 
(and (<= 0.7175738538 y4) 
(and (<= y4 1.0) 
(and (<= x4 (- 4.7663683168 0.9681535196)) 
(and (>= x4 0) 
(and (<= (+ x5 0.8716276306) z) 
(and (<= 0.6516107673 y5) 
(and (<= y5 1.0) 
(and (<= x5 (- 4.7663683168 0.8716276306)) 
(and (>= x5 0) 
(and (<= (+ x6 0.1202506815) z) 
(and (<= 0.5592377795 y6) 
(and (<= y6 1.0) 
(and (<= x6 (- 4.7663683168 0.1202506815)) 
(and (>= x6 0) 
(and (<= (+ x7 0.3804201431) z) 
(and (<= 0.5393339183 y7) 
(and (<= y7 1.0) 
(and (<= x7 (- 4.7663683168 0.3804201431)) 
(and (>= x7 0) 
(and (<= (+ x8 0.8701259266) z) 
(and (<= 0.3587339207 y8) 
(and (<= y8 1.0) 
(and (<= x8 (- 4.7663683168 0.8701259266)) 
(and (>= x8 0) 
(and (<= (+ x9 0.0382088301) z) 
(and (<= 0.3356812655 y9) 
(and (<= y9 1.0) 
(and (<= x9 (- 4.7663683168 0.0382088301)) 
(and (>= x9 0) 
(and (<= (+ x10 0.684236372) z) 
(and (<= 0.2435219412 y10) 
(and (<= y10 1.0) 
(and (<= x10 (- 4.7663683168 0.684236372)) 
(and (>= x10 0) 
(and (<= (+ x11 0.4869480678) z) 
(and (<= 0.1673840171 y11) 
(and (<= y11 1.0) 
(and (<= x11 (- 4.7663683168 0.4869480678)) 
(and (>= x11 0) 
(and (<= (+ x12 0.1227138337) z) 
(and (<= 0.1573490365 y12) 
(and (<= y12 1.0) 
(and (<= x12 (- 4.7663683168 0.1227138337)) 
(and (>= x12 0) 
(and (<= (+ x13 0.5413932906) z) 
(and (<= 0.1221320963 y13) 
(and (<= y13 1.0) 
(and (<= x13 (- 4.7663683168 0.5413932906)) 
(and (>= x13 0) 
(and (<= (+ x14 0.9713679736) z) 
(and (<= 0.1038183292 y14) 
(and (<= y14 1.0) 
(and (<= x14 (- 4.7663683168 0.9713679736)) 
(and (>= x14 0) 
(and (<= c 4.7663683168) 
(and (or (<= (+ x0 0.1167502852) x1) (or (<= (+ x1 0.3952551088) x0) (or (>= (- y0 0.9024338096) y1) (or (>= (- y1 0.8863962274) y0))))) 
(and (or (<= (+ x0 0.1167502852) x2) (or (<= (+ x2 0.0344022116) x0) (or (>= (- y0 0.9024338096) y2) (or (>= (- y2 0.8551933707) y0))))) 
(and (or (<= (+ x0 0.1167502852) x3) (or (<= (+ x3 0.0380148362) x0) (or (>= (- y0 0.9024338096) y3) (or (>= (- y3 0.8234475345) y0))))) 
(and (or (<= (+ x0 0.1167502852) x4) (or (<= (+ x4 0.9681535196) x0) (or (>= (- y0 0.9024338096) y4) (or (>= (- y4 0.7175738538) y0))))) 
(and (or (<= (+ x0 0.1167502852) x5) (or (<= (+ x5 0.8716276306) x0) (or (>= (- y0 0.9024338096) y5) (or (>= (- y5 0.6516107673) y0))))) 
(and (or (<= (+ x0 0.1167502852) x6) (or (<= (+ x6 0.1202506815) x0) (or (>= (- y0 0.9024338096) y6) (or (>= (- y6 0.5592377795) y0))))) 
(and (or (<= (+ x0 0.1167502852) x7) (or (<= (+ x7 0.3804201431) x0) (or (>= (- y0 0.9024338096) y7) (or (>= (- y7 0.5393339183) y0))))) 
(and (or (<= (+ x0 0.1167502852) x8) (or (<= (+ x8 0.8701259266) x0) (or (>= (- y0 0.9024338096) y8) (or (>= (- y8 0.3587339207) y0))))) 
(and (or (<= (+ x0 0.1167502852) x9) (or (<= (+ x9 0.0382088301) x0) (or (>= (- y0 0.9024338096) y9) (or (>= (- y9 0.3356812655) y0))))) 
(and (or (<= (+ x0 0.1167502852) x10) (or (<= (+ x10 0.684236372) x0) (or (>= (- y0 0.9024338096) y10) (or (>= (- y10 0.2435219412) y0))))) 
(and (or (<= (+ x0 0.1167502852) x11) (or (<= (+ x11 0.4869480678) x0) (or (>= (- y0 0.9024338096) y11) (or (>= (- y11 0.1673840171) y0))))) 
(and (or (<= (+ x0 0.1167502852) x12) (or (<= (+ x12 0.1227138337) x0) (or (>= (- y0 0.9024338096) y12) (or (>= (- y12 0.1573490365) y0))))) 
(and (or (<= (+ x0 0.1167502852) x13) (or (<= (+ x13 0.5413932906) x0) (or (>= (- y0 0.9024338096) y13) (or (>= (- y13 0.1221320963) y0))))) 
(and (or (<= (+ x0 0.1167502852) x14) (or (<= (+ x14 0.9713679736) x0) (or (>= (- y0 0.9024338096) y14) (or (>= (- y14 0.1038183292) y0))))) 
(and (or (<= (+ x1 0.3952551088) x2) (or (<= (+ x2 0.0344022116) x1) (or (>= (- y1 0.8863962274) y2) (or (>= (- y2 0.8551933707) y1))))) 
(and (or (<= (+ x1 0.3952551088) x3) (or (<= (+ x3 0.0380148362) x1) (or (>= (- y1 0.8863962274) y3) (or (>= (- y3 0.8234475345) y1))))) 
(and (or (<= (+ x1 0.3952551088) x4) (or (<= (+ x4 0.9681535196) x1) (or (>= (- y1 0.8863962274) y4) (or (>= (- y4 0.7175738538) y1))))) 
(and (or (<= (+ x1 0.3952551088) x5) (or (<= (+ x5 0.8716276306) x1) (or (>= (- y1 0.8863962274) y5) (or (>= (- y5 0.6516107673) y1))))) 
(and (or (<= (+ x1 0.3952551088) x6) (or (<= (+ x6 0.1202506815) x1) (or (>= (- y1 0.8863962274) y6) (or (>= (- y6 0.5592377795) y1))))) 
(and (or (<= (+ x1 0.3952551088) x7) (or (<= (+ x7 0.3804201431) x1) (or (>= (- y1 0.8863962274) y7) (or (>= (- y7 0.5393339183) y1))))) 
(and (or (<= (+ x1 0.3952551088) x8) (or (<= (+ x8 0.8701259266) x1) (or (>= (- y1 0.8863962274) y8) (or (>= (- y8 0.3587339207) y1))))) 
(and (or (<= (+ x1 0.3952551088) x9) (or (<= (+ x9 0.0382088301) x1) (or (>= (- y1 0.8863962274) y9) (or (>= (- y9 0.3356812655) y1))))) 
(and (or (<= (+ x1 0.3952551088) x10) (or (<= (+ x10 0.684236372) x1) (or (>= (- y1 0.8863962274) y10) (or (>= (- y10 0.2435219412) y1))))) 
(and (or (<= (+ x1 0.3952551088) x11) (or (<= (+ x11 0.4869480678) x1) (or (>= (- y1 0.8863962274) y11) (or (>= (- y11 0.1673840171) y1))))) 
(and (or (<= (+ x1 0.3952551088) x12) (or (<= (+ x12 0.1227138337) x1) (or (>= (- y1 0.8863962274) y12) (or (>= (- y12 0.1573490365) y1))))) 
(and (or (<= (+ x1 0.3952551088) x13) (or (<= (+ x13 0.5413932906) x1) (or (>= (- y1 0.8863962274) y13) (or (>= (- y13 0.1221320963) y1))))) 
(and (or (<= (+ x1 0.3952551088) x14) (or (<= (+ x14 0.9713679736) x1) (or (>= (- y1 0.8863962274) y14) (or (>= (- y14 0.1038183292) y1))))) 
(and (or (<= (+ x2 0.0344022116) x3) (or (<= (+ x3 0.0380148362) x2) (or (>= (- y2 0.8551933707) y3) (or (>= (- y3 0.8234475345) y2))))) 
(and (or (<= (+ x2 0.0344022116) x4) (or (<= (+ x4 0.9681535196) x2) (or (>= (- y2 0.8551933707) y4) (or (>= (- y4 0.7175738538) y2))))) 
(and (or (<= (+ x2 0.0344022116) x5) (or (<= (+ x5 0.8716276306) x2) (or (>= (- y2 0.8551933707) y5) (or (>= (- y5 0.6516107673) y2))))) 
(and (or (<= (+ x2 0.0344022116) x6) (or (<= (+ x6 0.1202506815) x2) (or (>= (- y2 0.8551933707) y6) (or (>= (- y6 0.5592377795) y2))))) 
(and (or (<= (+ x2 0.0344022116) x7) (or (<= (+ x7 0.3804201431) x2) (or (>= (- y2 0.8551933707) y7) (or (>= (- y7 0.5393339183) y2))))) 
(and (or (<= (+ x2 0.0344022116) x8) (or (<= (+ x8 0.8701259266) x2) (or (>= (- y2 0.8551933707) y8) (or (>= (- y8 0.3587339207) y2))))) 
(and (or (<= (+ x2 0.0344022116) x9) (or (<= (+ x9 0.0382088301) x2) (or (>= (- y2 0.8551933707) y9) (or (>= (- y9 0.3356812655) y2))))) 
(and (or (<= (+ x2 0.0344022116) x10) (or (<= (+ x10 0.684236372) x2) (or (>= (- y2 0.8551933707) y10) (or (>= (- y10 0.2435219412) y2))))) 
(and (or (<= (+ x2 0.0344022116) x11) (or (<= (+ x11 0.4869480678) x2) (or (>= (- y2 0.8551933707) y11) (or (>= (- y11 0.1673840171) y2))))) 
(and (or (<= (+ x2 0.0344022116) x12) (or (<= (+ x12 0.1227138337) x2) (or (>= (- y2 0.8551933707) y12) (or (>= (- y12 0.1573490365) y2))))) 
(and (or (<= (+ x2 0.0344022116) x13) (or (<= (+ x13 0.5413932906) x2) (or (>= (- y2 0.8551933707) y13) (or (>= (- y13 0.1221320963) y2))))) 
(and (or (<= (+ x2 0.0344022116) x14) (or (<= (+ x14 0.9713679736) x2) (or (>= (- y2 0.8551933707) y14) (or (>= (- y14 0.1038183292) y2))))) 
(and (or (<= (+ x3 0.0380148362) x4) (or (<= (+ x4 0.9681535196) x3) (or (>= (- y3 0.8234475345) y4) (or (>= (- y4 0.7175738538) y3))))) 
(and (or (<= (+ x3 0.0380148362) x5) (or (<= (+ x5 0.8716276306) x3) (or (>= (- y3 0.8234475345) y5) (or (>= (- y5 0.6516107673) y3))))) 
(and (or (<= (+ x3 0.0380148362) x6) (or (<= (+ x6 0.1202506815) x3) (or (>= (- y3 0.8234475345) y6) (or (>= (- y6 0.5592377795) y3))))) 
(and (or (<= (+ x3 0.0380148362) x7) (or (<= (+ x7 0.3804201431) x3) (or (>= (- y3 0.8234475345) y7) (or (>= (- y7 0.5393339183) y3))))) 
(and (or (<= (+ x3 0.0380148362) x8) (or (<= (+ x8 0.8701259266) x3) (or (>= (- y3 0.8234475345) y8) (or (>= (- y8 0.3587339207) y3))))) 
(and (or (<= (+ x3 0.0380148362) x9) (or (<= (+ x9 0.0382088301) x3) (or (>= (- y3 0.8234475345) y9) (or (>= (- y9 0.3356812655) y3))))) 
(and (or (<= (+ x3 0.0380148362) x10) (or (<= (+ x10 0.684236372) x3) (or (>= (- y3 0.8234475345) y10) (or (>= (- y10 0.2435219412) y3))))) 
(and (or (<= (+ x3 0.0380148362) x11) (or (<= (+ x11 0.4869480678) x3) (or (>= (- y3 0.8234475345) y11) (or (>= (- y11 0.1673840171) y3))))) 
(and (or (<= (+ x3 0.0380148362) x12) (or (<= (+ x12 0.1227138337) x3) (or (>= (- y3 0.8234475345) y12) (or (>= (- y12 0.1573490365) y3))))) 
(and (or (<= (+ x3 0.0380148362) x13) (or (<= (+ x13 0.5413932906) x3) (or (>= (- y3 0.8234475345) y13) (or (>= (- y13 0.1221320963) y3))))) 
(and (or (<= (+ x3 0.0380148362) x14) (or (<= (+ x14 0.9713679736) x3) (or (>= (- y3 0.8234475345) y14) (or (>= (- y14 0.1038183292) y3))))) 
(and (or (<= (+ x4 0.9681535196) x5) (or (<= (+ x5 0.8716276306) x4) (or (>= (- y4 0.7175738538) y5) (or (>= (- y5 0.6516107673) y4))))) 
(and (or (<= (+ x4 0.9681535196) x6) (or (<= (+ x6 0.1202506815) x4) (or (>= (- y4 0.7175738538) y6) (or (>= (- y6 0.5592377795) y4))))) 
(and (or (<= (+ x4 0.9681535196) x7) (or (<= (+ x7 0.3804201431) x4) (or (>= (- y4 0.7175738538) y7) (or (>= (- y7 0.5393339183) y4))))) 
(and (or (<= (+ x4 0.9681535196) x8) (or (<= (+ x8 0.8701259266) x4) (or (>= (- y4 0.7175738538) y8) (or (>= (- y8 0.3587339207) y4))))) 
(and (or (<= (+ x4 0.9681535196) x9) (or (<= (+ x9 0.0382088301) x4) (or (>= (- y4 0.7175738538) y9) (or (>= (- y9 0.3356812655) y4))))) 
(and (or (<= (+ x4 0.9681535196) x10) (or (<= (+ x10 0.684236372) x4) (or (>= (- y4 0.7175738538) y10) (or (>= (- y10 0.2435219412) y4))))) 
(and (or (<= (+ x4 0.9681535196) x11) (or (<= (+ x11 0.4869480678) x4) (or (>= (- y4 0.7175738538) y11) (or (>= (- y11 0.1673840171) y4))))) 
(and (or (<= (+ x4 0.9681535196) x12) (or (<= (+ x12 0.1227138337) x4) (or (>= (- y4 0.7175738538) y12) (or (>= (- y12 0.1573490365) y4))))) 
(and (or (<= (+ x4 0.9681535196) x13) (or (<= (+ x13 0.5413932906) x4) (or (>= (- y4 0.7175738538) y13) (or (>= (- y13 0.1221320963) y4))))) 
(and (or (<= (+ x4 0.9681535196) x14) (or (<= (+ x14 0.9713679736) x4) (or (>= (- y4 0.7175738538) y14) (or (>= (- y14 0.1038183292) y4))))) 
(and (or (<= (+ x5 0.8716276306) x6) (or (<= (+ x6 0.1202506815) x5) (or (>= (- y5 0.6516107673) y6) (or (>= (- y6 0.5592377795) y5))))) 
(and (or (<= (+ x5 0.8716276306) x7) (or (<= (+ x7 0.3804201431) x5) (or (>= (- y5 0.6516107673) y7) (or (>= (- y7 0.5393339183) y5))))) 
(and (or (<= (+ x5 0.8716276306) x8) (or (<= (+ x8 0.8701259266) x5) (or (>= (- y5 0.6516107673) y8) (or (>= (- y8 0.3587339207) y5))))) 
(and (or (<= (+ x5 0.8716276306) x9) (or (<= (+ x9 0.0382088301) x5) (or (>= (- y5 0.6516107673) y9) (or (>= (- y9 0.3356812655) y5))))) 
(and (or (<= (+ x5 0.8716276306) x10) (or (<= (+ x10 0.684236372) x5) (or (>= (- y5 0.6516107673) y10) (or (>= (- y10 0.2435219412) y5))))) 
(and (or (<= (+ x5 0.8716276306) x11) (or (<= (+ x11 0.4869480678) x5) (or (>= (- y5 0.6516107673) y11) (or (>= (- y11 0.1673840171) y5))))) 
(and (or (<= (+ x5 0.8716276306) x12) (or (<= (+ x12 0.1227138337) x5) (or (>= (- y5 0.6516107673) y12) (or (>= (- y12 0.1573490365) y5))))) 
(and (or (<= (+ x5 0.8716276306) x13) (or (<= (+ x13 0.5413932906) x5) (or (>= (- y5 0.6516107673) y13) (or (>= (- y13 0.1221320963) y5))))) 
(and (or (<= (+ x5 0.8716276306) x14) (or (<= (+ x14 0.9713679736) x5) (or (>= (- y5 0.6516107673) y14) (or (>= (- y14 0.1038183292) y5))))) 
(and (or (<= (+ x6 0.1202506815) x7) (or (<= (+ x7 0.3804201431) x6) (or (>= (- y6 0.5592377795) y7) (or (>= (- y7 0.5393339183) y6))))) 
(and (or (<= (+ x6 0.1202506815) x8) (or (<= (+ x8 0.8701259266) x6) (or (>= (- y6 0.5592377795) y8) (or (>= (- y8 0.3587339207) y6))))) 
(and (or (<= (+ x6 0.1202506815) x9) (or (<= (+ x9 0.0382088301) x6) (or (>= (- y6 0.5592377795) y9) (or (>= (- y9 0.3356812655) y6))))) 
(and (or (<= (+ x6 0.1202506815) x10) (or (<= (+ x10 0.684236372) x6) (or (>= (- y6 0.5592377795) y10) (or (>= (- y10 0.2435219412) y6))))) 
(and (or (<= (+ x6 0.1202506815) x11) (or (<= (+ x11 0.4869480678) x6) (or (>= (- y6 0.5592377795) y11) (or (>= (- y11 0.1673840171) y6))))) 
(and (or (<= (+ x6 0.1202506815) x12) (or (<= (+ x12 0.1227138337) x6) (or (>= (- y6 0.5592377795) y12) (or (>= (- y12 0.1573490365) y6))))) 
(and (or (<= (+ x6 0.1202506815) x13) (or (<= (+ x13 0.5413932906) x6) (or (>= (- y6 0.5592377795) y13) (or (>= (- y13 0.1221320963) y6))))) 
(and (or (<= (+ x6 0.1202506815) x14) (or (<= (+ x14 0.9713679736) x6) (or (>= (- y6 0.5592377795) y14) (or (>= (- y14 0.1038183292) y6))))) 
(and (or (<= (+ x7 0.3804201431) x8) (or (<= (+ x8 0.8701259266) x7) (or (>= (- y7 0.5393339183) y8) (or (>= (- y8 0.3587339207) y7))))) 
(and (or (<= (+ x7 0.3804201431) x9) (or (<= (+ x9 0.0382088301) x7) (or (>= (- y7 0.5393339183) y9) (or (>= (- y9 0.3356812655) y7))))) 
(and (or (<= (+ x7 0.3804201431) x10) (or (<= (+ x10 0.684236372) x7) (or (>= (- y7 0.5393339183) y10) (or (>= (- y10 0.2435219412) y7))))) 
(and (or (<= (+ x7 0.3804201431) x11) (or (<= (+ x11 0.4869480678) x7) (or (>= (- y7 0.5393339183) y11) (or (>= (- y11 0.1673840171) y7))))) 
(and (or (<= (+ x7 0.3804201431) x12) (or (<= (+ x12 0.1227138337) x7) (or (>= (- y7 0.5393339183) y12) (or (>= (- y12 0.1573490365) y7))))) 
(and (or (<= (+ x7 0.3804201431) x13) (or (<= (+ x13 0.5413932906) x7) (or (>= (- y7 0.5393339183) y13) (or (>= (- y13 0.1221320963) y7))))) 
(and (or (<= (+ x7 0.3804201431) x14) (or (<= (+ x14 0.9713679736) x7) (or (>= (- y7 0.5393339183) y14) (or (>= (- y14 0.1038183292) y7))))) 
(and (or (<= (+ x8 0.8701259266) x9) (or (<= (+ x9 0.0382088301) x8) (or (>= (- y8 0.3587339207) y9) (or (>= (- y9 0.3356812655) y8))))) 
(and (or (<= (+ x8 0.8701259266) x10) (or (<= (+ x10 0.684236372) x8) (or (>= (- y8 0.3587339207) y10) (or (>= (- y10 0.2435219412) y8))))) 
(and (or (<= (+ x8 0.8701259266) x11) (or (<= (+ x11 0.4869480678) x8) (or (>= (- y8 0.3587339207) y11) (or (>= (- y11 0.1673840171) y8))))) 
(and (or (<= (+ x8 0.8701259266) x12) (or (<= (+ x12 0.1227138337) x8) (or (>= (- y8 0.3587339207) y12) (or (>= (- y12 0.1573490365) y8))))) 
(and (or (<= (+ x8 0.8701259266) x13) (or (<= (+ x13 0.5413932906) x8) (or (>= (- y8 0.3587339207) y13) (or (>= (- y13 0.1221320963) y8))))) 
(and (or (<= (+ x8 0.8701259266) x14) (or (<= (+ x14 0.9713679736) x8) (or (>= (- y8 0.3587339207) y14) (or (>= (- y14 0.1038183292) y8))))) 
(and (or (<= (+ x9 0.0382088301) x10) (or (<= (+ x10 0.684236372) x9) (or (>= (- y9 0.3356812655) y10) (or (>= (- y10 0.2435219412) y9))))) 
(and (or (<= (+ x9 0.0382088301) x11) (or (<= (+ x11 0.4869480678) x9) (or (>= (- y9 0.3356812655) y11) (or (>= (- y11 0.1673840171) y9))))) 
(and (or (<= (+ x9 0.0382088301) x12) (or (<= (+ x12 0.1227138337) x9) (or (>= (- y9 0.3356812655) y12) (or (>= (- y12 0.1573490365) y9))))) 
(and (or (<= (+ x9 0.0382088301) x13) (or (<= (+ x13 0.5413932906) x9) (or (>= (- y9 0.3356812655) y13) (or (>= (- y13 0.1221320963) y9))))) 
(and (or (<= (+ x9 0.0382088301) x14) (or (<= (+ x14 0.9713679736) x9) (or (>= (- y9 0.3356812655) y14) (or (>= (- y14 0.1038183292) y9))))) 
(and (or (<= (+ x10 0.684236372) x11) (or (<= (+ x11 0.4869480678) x10) (or (>= (- y10 0.2435219412) y11) (or (>= (- y11 0.1673840171) y10))))) 
(and (or (<= (+ x10 0.684236372) x12) (or (<= (+ x12 0.1227138337) x10) (or (>= (- y10 0.2435219412) y12) (or (>= (- y12 0.1573490365) y10))))) 
(and (or (<= (+ x10 0.684236372) x13) (or (<= (+ x13 0.5413932906) x10) (or (>= (- y10 0.2435219412) y13) (or (>= (- y13 0.1221320963) y10))))) 
(and (or (<= (+ x10 0.684236372) x14) (or (<= (+ x14 0.9713679736) x10) (or (>= (- y10 0.2435219412) y14) (or (>= (- y14 0.1038183292) y10))))) 
(and (or (<= (+ x11 0.4869480678) x12) (or (<= (+ x12 0.1227138337) x11) (or (>= (- y11 0.1673840171) y12) (or (>= (- y12 0.1573490365) y11))))) 
(and (or (<= (+ x11 0.4869480678) x13) (or (<= (+ x13 0.5413932906) x11) (or (>= (- y11 0.1673840171) y13) (or (>= (- y13 0.1221320963) y11))))) 
(and (or (<= (+ x11 0.4869480678) x14) (or (<= (+ x14 0.9713679736) x11) (or (>= (- y11 0.1673840171) y14) (or (>= (- y14 0.1038183292) y11))))) 
(and (or (<= (+ x12 0.1227138337) x13) (or (<= (+ x13 0.5413932906) x12) (or (>= (- y12 0.1573490365) y13) (or (>= (- y13 0.1221320963) y12))))) 
(and (or (<= (+ x12 0.1227138337) x14) (or (<= (+ x14 0.9713679736) x12) (or (>= (- y12 0.1573490365) y14) (or (>= (- y14 0.1038183292) y12))))) 
(and (or (<= (+ x13 0.5413932906) x14) (or (<= (+ x14 0.9713679736) x13) (or (>= (- y13 0.1221320963) y14) (or (>= (- y14 0.1038183292) y13))))) )))))))))))))))))))))))))))))))))))))))))))))))))))))))))))))))))))))))))))))))))))))))))))))))))))))))))))))))))))))))))))))))))))))))))))))))))))))))))))))))))))))))))))))))))))))))))))))))))))))))))))))))))))))))
(minimize c)
(check-sat)
(get-objectives)
(exit)
